n_machines = 5;
n_resources = 7;
n_jobs = 35;
horizon = 1768;
LB = 587;
n_jobs_per_resource = [6, 7, 4, 3, 1, 5, 9];
duration = [97, 11, 64, 22, 18, 90, 52, 91, 7, 40, 57, 21, 34, 36, 16, 98, 3, 51, 83, 79, 22, 26, 82, 72, 5, 4, 35, 38, 84, 8, 90, 83, 83, 95, 71]